; Filename: m11-6-locked-topology-j10-r2
; WNTR: 1.5.0
; Created: 2026-08-19 19:06:21
[TITLE]

[JUNCTIONS]
;ID                      Elevation       Demand Pattern                 
 J1                      348.61545379    78.443892452 diurnal                    ;
 J2                      324.51282546    80.969472888 diurnal                    ;
 J3                      321.95511909    84.411418184 diurnal                    ;
 J4                      352.51507227     49.36734922 diurnal                    ;
 J5                      350.71312592    107.54686082 diurnal                    ;
 J6                      338.86720372    64.019644448 diurnal                    ;
 J7                       346.6449489    92.886385054 diurnal                    ;
 J8                      321.56672762    92.319047555 diurnal                    ;
 J9                      325.20752104    91.827119561 diurnal                    ;
 J10                      318.5664166    76.221140913 diurnal                    ;

[RESERVOIRS]
;ID                                   Head                  Pattern
 R1                      430.36328802                            ;

[TANKS]
;ID                              Elevation           Init Level            Min Level            Max Level             Diameter           Min Volume Volume Curve         Overflow            

[PIPES]
;ID                   Node1                Node2                              Length             Diameter            Roughness           Minor Loss               Status
 P_R1_J1              R1                   J1                      2251.6367714    11.789940919    101.73835998               0                 Open   ;
 P_J1_J2              J1                   J2                       1315.955628    12.966437019    118.76824767               0                 Open   ;
 P_J2_J3              J2                   J3                      1541.0888888    11.992930182    128.42481967               0                 Open   ;
 P_J3_J4              J3                   J4                      1744.3462991    14.115054157    121.35159338               0                 Open   ;
 P_J4_J5              J4                   J5                      1407.0835698    10.175597097    107.38543021               0                 Open   ;
 P_J5_J6              J5                   J6                      1740.9104404    13.765183043    127.38842009               0                 Open   ;
 P_J6_J7              J6                   J7                      2199.2207554    13.822659821    124.90319465               0                 Open   ;
 P_J7_J8              J7                   J8                      1154.9014821    15.579925442    108.45517243               0                 Open   ;
 P_J8_J9              J8                   J9                      1894.4792693    12.115597069    100.10878521               0                 Open   ;
 P_J9_J10             J9                   J10                     2202.9598771    12.816012614    103.05863541               0                 Open   ;
 P_J5_J9_loop0        J5                   J9                      2131.1561462    13.619462857    118.48655812               0                 Open   ;
 P_J3_J6_loop1        J3                   J6                      1327.3945839     15.26379971     106.1613855               0                 Open   ;

[PUMPS]
;ID                   Node1                Node2                Properties          

[VALVES]
;ID                   Node1                Node2                            Diameter Type              Setting           Minor Loss

[TAGS]
;type      name       tag       

[DEMANDS]
;ID        Demand     Pattern   

[STATUS]
;ID        Setting   

[PATTERNS]
;ID        Multipliers

diurnal 0.620000 0.560000 0.520000 0.500000 0.550000 0.720000
diurnal 1.000000 1.220000 1.180000 1.050000 0.980000 1.020000
diurnal 1.080000 1.040000 0.980000 0.960000 1.080000 1.280000
diurnal 1.380000 1.240000 1.080000 0.940000 0.800000 0.700000

[CURVES]
;ID         X-Value      Y-Value     

[CONTROLS]

[RULES]

[ENERGY]
GLOBAL PRICE           0.0000

[EMITTERS]
;ID        Flow coefficient

[QUALITY]

[SOURCES]
;Node      Type       Quality    Pattern   

[REACTIONS]
;Type           Pipe/Tank               Coefficient

 ORDER BULK 1
 ORDER TANK 1
 ORDER WALL 1
 GLOBAL BULK 0.0000    
 GLOBAL WALL 0.0000    

[MIXING]
;Tank ID             Model Fraction

[TIMES]
DURATION             24:00:00
HYDRAULIC TIMESTEP   01:00:00
QUALITY TIMESTEP     00:05:00
PATTERN TIMESTEP     01:00:00
PATTERN START        00:00:00
REPORT TIMESTEP      01:00:00
REPORT START         00:00:00
START CLOCKTIME      00:00:00 AM
RULE TIMESTEP        00:06:00
STATISTIC            NONE      

[REPORT]

[OPTIONS]
UNITS                GPM                 
HEADLOSS             H-W                 
SPECIFIC GRAVITY     1
VISCOSITY            1
TRIALS               200
ACCURACY             0.001
CHECKFREQ            2
MAXCHECK             10
UNBALANCED           STOP                
PATTERN              1                   
DEMAND MULTIPLIER    1
EMITTER EXPONENT     0.5
QUALITY              NONE                
DIFFUSIVITY          1
TOLERANCE            0.01

[COORDINATES]
;Node      X-Coord    Y-Coord   
R1                  0.000000000          0.000000000
J1                826.483951461        239.526584882
J2               1515.756667472         87.495431609
J3               1915.271706306        367.411909051
J4               2481.195063656       -244.538065248
J5               3110.519161604         99.144362572
J6               3907.300048606        168.173265407
J7               4365.299506005        135.632987832
J8               5052.425539097        115.185593693
J9               5722.950019987        389.428607086
J10              6184.614045154       -358.153577488

[VERTICES]
;Link      X-Coord    Y-Coord   

[LABELS]

[BACKDROP]
UNITS    NONE

[END]
